\ Model Hospital NetwORk Model
\ LP format - for model browsing. Use MPS format to capture full model detail.
Minimize
  100 y_1_h1 + 90 y_1_h2 + 50 y_1_h3 + 180 y_1_h4 + 200 y_1_h5 + 50 y_1_h6
   + 100 y_1_h7 + 200 y_2_h1 + 100 y_2_h2 + 250 y_2_h3 + 200 y_2_h4
   + 300 y_2_h5 + 250 y_2_h6 + 150 y_2_h7 + 600 y_3_h1 + 250 y_3_h2
   + 300 y_3_h3 + 480 y_3_h4 + 400 y_3_h5 + 550 y_3_h6 + 200 y_3_h7
   - 150 Constant
Subject To
 R0: y_1_h1 + y_2_h1 + y_3_h1 <= 1
 R1: y_1_h2 + y_2_h2 + y_3_h2 <= 1
 R2: y_1_h3 + y_2_h3 + y_3_h3 <= 1
 R3: y_1_h4 + y_2_h4 + y_3_h4 <= 1
 R4: y_1_h5 + y_2_h5 + y_3_h5 <= 1
 R5: y_1_h6 + y_2_h6 + y_3_h6 <= 1
 R6: y_1_h7 + y_2_h7 + y_3_h7 <= 1
 R7: x_h1_c1 + x_h1_c2 + x_h1_c3 + x_h1_c5 + x_h1_c9 + x_h1_c10 + x_h1_c11
   - 3 y_1_h1 - 3 y_2_h1 - 8 y_3_h1 <= 0
 R8: x_h2_c1 + x_h2_c2 + x_h2_c3 + x_h2_c5 + x_h2_c7 + x_h2_c9 + x_h2_c10
   + x_h2_c11 - 3 y_1_h2 - 3 y_2_h2 - 5 y_3_h2 <= 0
 R9: x_h3_c3 + x_h3_c5 + x_h3_c9 + x_h3_c11 - 3 y_1_h3 - 3 y_2_h3
   - 5 y_3_h3 <= 0
 R10: x_h4_c1 + x_h4_c2 + x_h4_c6 + x_h4_c7 + x_h4_c9 - 3 y_1_h4 - 4 y_2_h4
   - 5 y_3_h4 <= 0
 R11: x_h5_c1 + x_h5_c2 + x_h5_c3 + x_h5_c5 + x_h5_c6 + x_h5_c7 + x_h5_c9
   + x_h5_c10 + x_h5_c11 - 3 y_1_h5 - 4 y_2_h5 - 5 y_3_h5 <= 0
 R12: x_h6_c4 + x_h6_c6 + x_h6_c7 + x_h6_c8 + x_h6_c9 - y_1_h6 - 2 y_2_h6
   - 4 y_3_h6 <= 0
 R13: x_h7_c4 + x_h7_c6 + x_h7_c7 + x_h7_c8 - y_1_h7 - 2 y_2_h7 - 2 y_3_h7
   <= 0
 R14: x_h1_c1 + x_h2_c1 + x_h4_c1 + x_h5_c1 = 1
 R15: x_h1_c2 + x_h2_c2 + x_h4_c2 + x_h5_c2 = 1
 R16: x_h1_c3 + x_h2_c3 + x_h3_c3 + x_h5_c3 = 1
 R17: x_h6_c4 + x_h7_c4 = 1
 R18: x_h1_c5 + x_h2_c5 + x_h3_c5 + x_h5_c5 = 1
 R19: x_h4_c6 + x_h5_c6 + x_h6_c6 + x_h7_c6 = 1
 R20: x_h2_c7 + x_h4_c7 + x_h5_c7 + x_h6_c7 + x_h7_c7 = 1
 R21: x_h6_c8 + x_h7_c8 = 1
 R22: x_h1_c9 + x_h2_c9 + x_h3_c9 + x_h4_c9 + x_h5_c9 + x_h6_c9 = 1
 R23: x_h1_c10 + x_h2_c10 + x_h5_c10 = 1
 R24: x_h1_c11 + x_h2_c11 + x_h3_c11 + x_h5_c11 = 1
 R25: 20.6155281280883 x_h1_c1 - 20 y_1_h1 - 20 y_2_h1 - 30 y_3_h1 <= 0
 R26: 25.49509756796392 x_h1_c2 - 20 y_1_h1 - 20 y_2_h1 - 30 y_3_h1 <= 0
 R27: 15 x_h1_c3 - 20 y_1_h1 - 20 y_2_h1 - 30 y_3_h1 <= 0
 R28: 15.8113883008419 x_h1_c5 - 20 y_1_h1 - 20 y_2_h1 - 30 y_3_h1 <= 0
 R29: 22.3606797749979 x_h1_c9 - 20 y_1_h1 - 20 y_2_h1 - 30 y_3_h1 <= 0
 R30: 14.14213562373095 x_h1_c10 - 20 y_1_h1 - 20 y_2_h1 - 30 y_3_h1 <= 0
 R31: 11.18033988749895 x_h1_c11 - 20 y_1_h1 - 20 y_2_h1 - 30 y_3_h1 <= 0
 R32: 11.18033988749895 x_h2_c1 - 20 y_1_h2 - 20 y_2_h2 - 30 y_3_h2 <= 0
 R33: 15.8113883008419 x_h2_c2 - 20 y_1_h2 - 20 y_2_h2 - 30 y_3_h2 <= 0
 R34: 18.02775637731995 x_h2_c3 - 20 y_1_h2 - 20 y_2_h2 - 30 y_3_h2 <= 0
 R35: 15.8113883008419 x_h2_c5 - 20 y_1_h2 - 20 y_2_h2 - 30 y_3_h2 <= 0
 R36: 28.2842712474619 x_h2_c7 - 20 y_1_h2 - 20 y_2_h2 - 30 y_3_h2 <= 0
 R37: 14.14213562373095 x_h2_c9 - 20 y_1_h2 - 20 y_2_h2 - 30 y_3_h2 <= 0
 R38: 10 x_h2_c10 - 20 y_1_h2 - 20 y_2_h2 - 30 y_3_h2 <= 0
 R39: 5 x_h2_c11 - 20 y_1_h2 - 20 y_2_h2 - 30 y_3_h2 <= 0
 R40: 15 x_h3_c3 - 20 y_1_h3 - 20 y_2_h3 - 30 y_3_h3 <= 0
 R41: 15.8113883008419 x_h3_c5 - 20 y_1_h3 - 20 y_2_h3 - 30 y_3_h3 <= 0
 R42: 28.2842712474619 x_h3_c9 - 20 y_1_h3 - 20 y_2_h3 - 30 y_3_h3 <= 0
 R43: 26.92582403567252 x_h3_c11 - 20 y_1_h3 - 20 y_2_h3 - 30 y_3_h3 <= 0
 R44: 20.6155281280883 x_h4_c1 - 20 y_1_h4 - 20 y_2_h4 - 30 y_3_h4 <= 0
 R45: 15.8113883008419 x_h4_c2 - 20 y_1_h4 - 20 y_2_h4 - 30 y_3_h4 <= 0
 R46: 10 x_h4_c6 - 20 y_1_h4 - 20 y_2_h4 - 30 y_3_h4 <= 0
 R47: 22.3606797749979 x_h4_c7 - 20 y_1_h4 - 20 y_2_h4 - 30 y_3_h4 <= 0
 R48: 22.3606797749979 x_h4_c9 - 20 y_1_h4 - 20 y_2_h4 - 30 y_3_h4 <= 0
 R49: 15 x_h5_c1 - 20 y_1_h5 - 20 y_2_h5 - 30 y_3_h5 <= 0
 R50: 15.8113883008419 x_h5_c2 - 20 y_1_h5 - 20 y_2_h5 - 30 y_3_h5 <= 0
 R51: 20.6155281280883 x_h5_c3 - 20 y_1_h5 - 20 y_2_h5 - 30 y_3_h5 <= 0
 R52: 15.8113883008419 x_h5_c5 - 20 y_1_h5 - 20 y_2_h5 - 30 y_3_h5 <= 0
 R53: 20 x_h5_c6 - 20 y_1_h5 - 20 y_2_h5 - 30 y_3_h5 <= 0
 R54: 14.14213562373095 x_h5_c7 - 20 y_1_h5 - 20 y_2_h5 - 30 y_3_h5 <= 0
 R55: - 20 y_1_h5 - 20 y_2_h5 - 30 y_3_h5 <= 0
 R56: 22.3606797749979 x_h5_c10 - 20 y_1_h5 - 20 y_2_h5 - 30 y_3_h5 <= 0
 R57: 11.18033988749895 x_h5_c11 - 20 y_1_h5 - 20 y_2_h5 - 30 y_3_h5 <= 0
 R58: 10 x_h6_c4 - 20 y_1_h6 - 20 y_2_h6 - 30 y_3_h6 <= 0
 R59: 20 x_h6_c6 - 20 y_1_h6 - 20 y_2_h6 - 30 y_3_h6 <= 0
 R60: 14.14213562373095 x_h6_c7 - 20 y_1_h6 - 20 y_2_h6 - 30 y_3_h6 <= 0
 R61: 25 x_h6_c8 - 20 y_1_h6 - 20 y_2_h6 - 30 y_3_h6 <= 0
 R62: 28.2842712474619 x_h6_c9 - 20 y_1_h6 - 20 y_2_h6 - 30 y_3_h6 <= 0
 R63: 11.18033988749895 x_h7_c4 - 20 y_1_h7 - 20 y_2_h7 - 30 y_3_h7 <= 0
 R64: 26.92582403567252 x_h7_c6 - 20 y_1_h7 - 20 y_2_h7 - 30 y_3_h7 <= 0
 R65: 25 x_h7_c7 - 20 y_1_h7 - 20 y_2_h7 - 30 y_3_h7 <= 0
 R66: 15.8113883008419 x_h7_c8 - 20 y_1_h7 - 20 y_2_h7 - 30 y_3_h7 <= 0
 R67: - x_h1_c1 + y_2_h1 + y_3_h1 >= 0
 R68: - x_h1_c3 + y_2_h1 + y_3_h1 >= 0
 R69: - x_h2_c1 + y_2_h2 + y_3_h2 >= 0
 R70: - x_h2_c3 + y_2_h2 + y_3_h2 >= 0
 R71: - x_h3_c3 + y_2_h3 + y_3_h3 >= 0
 R72: - x_h4_c1 + y_2_h4 + y_3_h4 >= 0
 R73: - x_h4_c6 + y_2_h4 + y_3_h4 >= 0
 R74: - x_h5_c1 + y_2_h5 + y_3_h5 >= 0
 R75: - x_h5_c3 + y_2_h5 + y_3_h5 >= 0
 R76: - x_h5_c6 + y_2_h5 + y_3_h5 >= 0
 R77: - x_h6_c6 + y_2_h6 + y_3_h6 >= 0
 R78: - x_h6_c8 + y_2_h6 + y_3_h6 >= 0
 R79: - x_h7_c6 + y_2_h7 + y_3_h7 >= 0
 R80: - x_h7_c8 + y_2_h7 + y_3_h7 >= 0
Bounds
 Constant = 1
Binaries
 x_h1_c1 x_h1_c2 x_h1_c3 x_h1_c5 x_h1_c9 x_h1_c10 x_h1_c11 x_h2_c1 x_h2_c2
 x_h2_c3 x_h2_c5 x_h2_c7 x_h2_c9 x_h2_c10 x_h2_c11 x_h3_c3 x_h3_c5 x_h3_c9
 x_h3_c11 x_h4_c1 x_h4_c2 x_h4_c6 x_h4_c7 x_h4_c9 x_h5_c1 x_h5_c2 x_h5_c3
 x_h5_c5 x_h5_c6 x_h5_c7 x_h5_c9 x_h5_c10 x_h5_c11 x_h6_c4 x_h6_c6 x_h6_c7
 x_h6_c8 x_h6_c9 x_h7_c4 x_h7_c6 x_h7_c7 x_h7_c8 y_1_h1 y_1_h2 y_1_h3
 y_1_h4 y_1_h5 y_1_h6 y_1_h7 y_2_h1 y_2_h2 y_2_h3 y_2_h4 y_2_h5 y_2_h6
 y_2_h7 y_3_h1 y_3_h2 y_3_h3 y_3_h4 y_3_h5 y_3_h6 y_3_h7
End
